Gurobi Optimizer version 9.1.0 build v9.1.0rc0 (linux64)
Thread count: 8 physical cores, 16 logical processors, using up to 16 threads
Optimize a model with 175196 rows, 160320 columns and 920780 nonzeros
Model fingerprint: 0x22c146e6
Variable types: 0 continuous, 160320 integer (160320 binary)
Coefficient statistics:
  Matrix range     [1e+00, 1e+00]
  Objective range  [1e+01, 1e+05]
  Bounds range     [1e+00, 1e+00]
  RHS range        [1e+00, 1e+03]
Presolve removed 20 rows and 20 columns
Presolve time: 3.66s
Presolved: 175176 rows, 160300 columns, 920740 nonzeros
Variable types: 0 continuous, 160300 integer (160300 binary)
Found heuristic solution: objective 878324.00000

Concurrent LP optimizer: primal simplex, dual simplex, and barrier
Showing barrier log only...

Root barrier log...

Ordering time: 0.06s

Barrier statistics:
 Dense cols : 160
 AA' NZ     : 8.027e+05
 Factor NZ  : 3.695e+06 (roughly 170 MBytes of memory)
 Factor Ops : 1.996e+08 (less than 1 second per iteration)
 Threads    : 6

                  Objective                Residual
Iter       Primal          Dual         Primal    Dual     Compl     Time
   0   9.73780693e+07 -1.22619260e+05  1.11e+02 0.00e+00  2.53e+03     8s
   1   1.12252567e+06 -3.41890606e+07  1.85e-01 8.34e+03  7.56e+01     9s
   2   1.03085910e+06 -1.24950747e+06  4.12e-02 1.06e+03  4.84e+00     9s
   3   1.00983737e+06  2.80869432e+05  3.39e-02 2.76e+02  1.51e+00    10s
   4   8.82802301e+05  6.19855193e+05  1.83e-03 8.76e+01  5.50e-01    10s
   5   8.50121639e+05  7.20333120e+05  9.42e-04 3.59e+01  2.70e-01    11s
   6   8.35887370e+05  7.49504229e+05  6.89e-04 2.19e+01  1.79e-01    11s
   7   8.27713025e+05  7.64982096e+05  5.51e-04 1.40e+01  1.30e-01    12s
   8   8.18194997e+05  7.72413015e+05  4.05e-04 9.98e+00  9.45e-02    12s
   9   8.10005004e+05  7.81336058e+05  2.80e-04 5.38e+00  5.90e-02    13s
  10   8.03511733e+05  7.84949071e+05  1.77e-04 3.51e+00  3.82e-02    13s
  11   7.99910104e+05  7.87258469e+05  1.22e-04 2.34e+00  2.60e-02    14s
  12   7.98100325e+05  7.88211305e+05  9.36e-05 1.86e+00  2.03e-02    14s
  13   7.96747220e+05  7.88663551e+05  7.25e-05 1.63e+00  1.67e-02    14s
  14   7.96038628e+05  7.89561894e+05  6.17e-05 1.18e+00  1.33e-02    15s
  15   7.95123595e+05  7.90313367e+05  4.79e-05 8.08e-01  9.87e-03    15s
  16   7.94366624e+05  7.90742862e+05  3.70e-05 5.85e-01  7.43e-03    16s
  17   7.93731967e+05  7.90976623e+05  2.75e-05 4.65e-01  5.65e-03    17s
  18   7.93376681e+05  7.91165867e+05  2.22e-05 3.70e-01  4.54e-03    17s
  19   7.93092262e+05  7.91351047e+05  1.81e-05 2.77e-01  3.57e-03    18s
  20   7.92790167e+05  7.91420665e+05  1.35e-05 2.40e-01  2.81e-03    18s
  21   7.92619998e+05  7.91546111e+05  1.10e-05 1.76e-01  2.20e-03    19s
  22   7.92426811e+05  7.91628300e+05  8.08e-06 1.32e-01  1.64e-03    19s
  23   7.92310482e+05  7.91651548e+05  6.36e-06 1.20e-01  1.35e-03    19s
  24   7.92228993e+05  7.91714851e+05  5.20e-06 8.72e-02  1.06e-03    20s
  25   7.92165958e+05  7.91730084e+05  4.33e-06 7.91e-02  8.96e-04    20s
  26   7.92102109e+05  7.91784069e+05  3.40e-06 5.01e-02  6.52e-04    21s
  27   7.92046129e+05  7.91814331e+05  2.55e-06 3.38e-02  4.74e-04    21s
  28   7.91999113e+05  7.91826724e+05  1.84e-06 2.72e-02  3.53e-04    21s
  29   7.91961120e+05  7.91846271e+05  1.26e-06 1.60e-02  2.35e-04    22s
  30   7.91926295e+05  7.91860792e+05  7.37e-07 8.02e-03  1.34e-04    22s
  31   7.91882678e+05  7.91872517e+05  8.84e-08 1.95e-03  2.09e-05    22s
  32   7.91876297e+05  7.91876150e+05  7.99e-10 4.89e-05  3.03e-07    23s
  33   7.91876222e+05  7.91876222e+05  5.08e-10 5.18e-08  1.80e-12    23s

Barrier solved model in 33 iterations and 22.93 seconds
Optimal objective 7.91876222e+05


Root crossover log...

   41742 DPushes remaining with DInf 0.0000000e+00                23s
       0 DPushes remaining with DInf 0.0000000e+00                25s

    1223 PPushes remaining with PInf 0.0000000e+00                25s
       0 PPushes remaining with PInf 0.0000000e+00                25s

  Push phase complete: Pinf 0.0000000e+00, Dinf 1.2170176e-10     25s


Root simplex log...

Iteration    Objective       Primal Inf.    Dual Inf.      Time
    9579    7.9187622e+05   0.000000e+00   0.000000e+00     25s
    9579    7.9187622e+05   0.000000e+00   0.000000e+00     25s

Solved with barrier

Root relaxation: objective 7.918762e+05, 9579 iterations, 18.65 seconds

    Nodes    |    Current Node    |     Objective Bounds      |     Work
 Expl Unexpl |  Obj  Depth IntInf | Incumbent    BestBd   Gap | It/Node Time

     0     0 791876.222    0 12518 878324.000 791876.222  9.84%     -   32s
H    0     0                    809157.00000 791876.222  2.14%     -   36s
H    0     0                    807417.00000 791876.222  1.92%     -   38s
     0     0 791884.315    0 12948 807417.000 791884.315  1.92%     -   49s
H    0     0                    798843.00000 791884.315  0.87%     -   52s
H    0     0                    797777.00000 791884.315  0.74%     -   54s
     0     0 791884.416    0 12933 797777.000 791884.416  0.74%     -   82s
     0     0 791884.571    0 12963 797777.000 791884.571  0.74%     -   86s
     0     0 791884.600    0 12947 797777.000 791884.600  0.74%     -   90s
     0     0 791886.384    0 12951 797777.000 791886.384  0.74%     -  103s
H    0     0                    797746.00000 791886.384  0.73%     -  104s
H    0     0                    797733.00000 791886.384  0.73%     -  109s
     0     0 791887.082    0 12532 797733.000 791887.082  0.73%     -  115s
     0     0 791887.192    0 12942 797733.000 791887.192  0.73%     -  121s
     0     0 791887.192    0 12946 797733.000 791887.192  0.73%     -  125s
     0     0 791897.618    0 12928 797733.000 791897.618  0.73%     -  147s
H    0     0                    797722.00000 791897.618  0.73%     -  152s
     0     0 791898.765    0 12926 797722.000 791898.765  0.73%     -  156s
     0     0 791898.765    0 12926 797722.000 791898.765  0.73%     -  158s
     0     0 791911.598    0 12558 797722.000 791911.598  0.73%     -  172s
H    0     0                    797718.00000 791911.598  0.73%     -  179s
     0     0 791911.764    0 12557 797718.000 791911.764  0.73%     -  180s
     0     0 791911.903    0 12972 797718.000 791911.903  0.73%     -  181s
     0     0 791918.210    0 12987 797718.000 791918.210  0.73%     -  193s
     0     0 791918.306    0 12983 797718.000 791918.306  0.73%     -  196s
     0     0 791918.345    0 12989 797718.000 791918.345  0.73%     -  197s
     0     0 791929.432    0 13006 797718.000 791929.432  0.73%     -  209s
H    0     0                    797716.00000 791929.432  0.73%     -  215s
     0     0 791929.734    0 13000 797716.000 791929.734  0.73%     -  216s
     0     0 791929.734    0 13005 797716.000 791929.734  0.73%     -  217s
     0     0 791938.076    0 13022 797716.000 791938.076  0.72%     -  230s
     0     0 791938.083    0 13037 797716.000 791938.083  0.72%     -  232s
     0     0 791938.083    0 13040 797716.000 791938.083  0.72%     -  237s
H    0     0                    797713.00000 791938.083  0.72%     -  240s
     0     0 791938.083    0 13028 797713.000 791938.083  0.72%     -  248s
H    0     0                    797658.00000 791938.083  0.72%     -  289s
H    0     2                    797646.00000 791938.083  0.72%     -  294s
     0     2 791938.083    0 13028 797646.000 791938.083  0.72%     -  294s

Cutting planes:
  Gomory: 4
  Zero half: 203

Explored 1 nodes (20319 simplex iterations) in 300.08 seconds
Thread count was 16 (of 16 available processors)

Solution count 10: 797646 797658 797713 ... 798843

Time limit reached
Best objective 7.976460000000e+05, best bound 7.919381369103e+05, gap 0.7156%

User-callback calls 33899, time in user-callback 0.58 sec
['/opt/local/stow/gurobi910/linux64/lib/libgurobi91.so']
Result: runtime=293.36sec; objective=797646
Solution written to /autofs/unityaccount/cremi/mdeboute/Bureau/multi-period-flp/solution/instMulti_I20_J1000_T8_1_result.txt
